; PUSH cw_4 PUSH cw_5 DUP3 PUSH cw_4 PUSH cw_6 SWAP1 => PUSH cw_4 PUSH cw_5 DUP3 PUSH cw_6 DUP4
(set-option :produce-proofs true)
; 
(set-info :status unknown)
(declare-fun storage_t ((_ BitVec 256) (_ BitVec 256) (_ BitVec 256) (_ BitVec 256) Int (_ BitVec 256)) (_ BitVec 256))
(declare-fun w_6 () (_ BitVec 256))
(declare-fun w_5 () (_ BitVec 256))
(declare-fun w_4 () (_ BitVec 256))
(declare-fun storage_s ((_ BitVec 256) (_ BitVec 256) (_ BitVec 256) (_ BitVec 256) Int (_ BitVec 256)) (_ BitVec 256))
(declare-fun exc_halt_t (Int) Bool)
(declare-fun exc_halt_s (Int) Bool)
(declare-fun stack_t ((_ BitVec 256) (_ BitVec 256) (_ BitVec 256) (_ BitVec 256) Int (_ BitVec 6)) (_ BitVec 256))
(declare-fun stack_s ((_ BitVec 256) (_ BitVec 256) (_ BitVec 256) (_ BitVec 256) Int (_ BitVec 6)) (_ BitVec 256))
(declare-fun sc_t (Int) (_ BitVec 6))
(declare-fun sc_s (Int) (_ BitVec 6))
(declare-fun used_gas_t ((_ BitVec 256) (_ BitVec 256) (_ BitVec 256) (_ BitVec 256) Int) Int)
(declare-fun used_gas_s ((_ BitVec 256) (_ BitVec 256) (_ BitVec 256) (_ BitVec 256) Int) Int)
(assert
 (exists ((x_0 (_ BitVec 256)) )(let (($x10849 (forall ((w (_ BitVec 256)) )(let ((?x3184 (storage_t x_0 w_4 w_5 w_6 5 w)))
 (let ((?x7649 (storage_s x_0 w_4 w_5 w_6 6 w)))
 (= ?x7649 ?x3184))))
 ))
 (let (($x1885 (exc_halt_t 5)))
 (let (($x772 (exc_halt_s 6)))
 (let (($x11108 (= $x772 $x1885)))
 (let (($x7757 (forall ((n (_ BitVec 6)) )(let ((?x10492 (stack_t x_0 w_4 w_5 w_6 5 n)))
 (let ((?x3333 (stack_s x_0 w_4 w_5 w_6 6 n)))
 (let (($x3766 (= ?x3333 ?x10492)))
 (let ((?x8961 (sc_t 5)))
 (let (($x2253 (bvsle ?x8961 n)))
 (or $x2253 $x3766)))))))
 ))
 (let ((?x8961 (sc_t 5)))
 (let ((?x926 (sc_s 6)))
 (let (($x5889 (= ?x926 ?x8961)))
 (let ((?x1257 (used_gas_t x_0 w_4 w_5 w_6 0)))
 (let ((?x7966 (used_gas_s x_0 w_4 w_5 w_6 0)))
 (let (($x9717 (= ?x7966 ?x1257)))
 (let (($x6809 (forall ((w (_ BitVec 256)) )(let ((?x10810 (storage_t x_0 w_4 w_5 w_6 0 w)))
 (let ((?x3848 (storage_s x_0 w_4 w_5 w_6 0 w)))
 (= ?x3848 ?x10810))))
 ))
 (let (($x56 (exc_halt_t 0)))
 (let (($x57 (exc_halt_s 0)))
 (let (($x58 (= $x57 $x56)))
 (let (($x6802 (forall ((n (_ BitVec 6)) )(let ((?x63 (sc_t 0)))
 (let (($x11230 (bvsle ?x63 n)))
 (let ((?x8752 (stack_t x_0 w_4 w_5 w_6 0 n)))
 (let ((?x6669 (stack_s x_0 w_4 w_5 w_6 0 n)))
 (let (($x9891 (= ?x6669 ?x8752)))
 (or $x9891 $x11230)))))))
 ))
 (let ((?x63 (sc_t 0)))
 (let ((?x72 (sc_s 0)))
 (let (($x73 (= ?x72 ?x63)))
 (let (($x7854 (exc_halt_t 4)))
 (let (($x6854 (not (= ((_ extract 6 6) (bvadd (_ bv1 7) (concat (_ bv0 1) (sc_t 4)))) (_ bv0 1)))))
 (let (($x5660 (forall ((w (_ BitVec 256)) )(let ((?x8494 (storage_t x_0 w_4 w_5 w_6 4 w)))
 (let ((?x3184 (storage_t x_0 w_4 w_5 w_6 5 w)))
 (= ?x3184 ?x8494))))
 ))
 (let (($x4626 (forall ((n (_ BitVec 6)) )(let ((?x11356 (stack_t x_0 w_4 w_5 w_6 4 n)))
 (let ((?x10492 (stack_t x_0 w_4 w_5 w_6 5 n)))
 (or (= ?x10492 ?x11356) (bvsle (bvadd (_ bv60 6) (sc_t 4)) n)))))
 ))
 (let (($x7222 (= ?x8961 (bvadd (_ bv1 6) (sc_t 4)))))
 (let (($x11217 (= (used_gas_t x_0 w_4 w_5 w_6 5) (+ 3 (used_gas_t x_0 w_4 w_5 w_6 4)))))
 (let (($x3165 (= (stack_t x_0 w_4 w_5 w_6 5 (bvadd (_ bv63 6) (sc_t 4))) (stack_t x_0 w_4 w_5 w_6 4 (bvadd (_ bv63 6) (sc_t 4))))))
 (let (($x1439 (= (stack_t x_0 w_4 w_5 w_6 5 (bvadd (_ bv62 6) (sc_t 4))) (stack_t x_0 w_4 w_5 w_6 4 (bvadd (_ bv62 6) (sc_t 4))))))
 (let (($x10139 (= (stack_t x_0 w_4 w_5 w_6 5 (bvadd (_ bv61 6) (sc_t 4))) (stack_t x_0 w_4 w_5 w_6 4 (bvadd (_ bv61 6) (sc_t 4))))))
 (let ((?x10468 (sc_t 4)))
 (let ((?x9419 (bvadd (_ bv60 6) ?x10468)))
 (let ((?x4718 (stack_t x_0 w_4 w_5 w_6 4 ?x9419)))
 (let (($x7621 (not (= ((_ extract 6 6) (bvadd (_ bv1 7) (concat (_ bv0 1) (sc_t 3)))) (_ bv0 1)))))
 (let (($x4112 (exc_halt_t 3)))
 (let (($x8973 (forall ((w (_ BitVec 256)) )(let ((?x4458 (storage_t x_0 w_4 w_5 w_6 3 w)))
 (let ((?x8494 (storage_t x_0 w_4 w_5 w_6 4 w)))
 (= ?x8494 ?x4458))))
 ))
 (let (($x2673 (forall ((n (_ BitVec 6)) )(let ((?x760 (stack_t x_0 w_4 w_5 w_6 3 n)))
 (let ((?x11356 (stack_t x_0 w_4 w_5 w_6 4 n)))
 (or (= ?x11356 ?x760) (bvsle (sc_t 3) n)))))
 ))
 (let (($x9174 (= ?x10468 (bvadd (_ bv1 6) (sc_t 3)))))
 (let ((?x8039 (used_gas_t x_0 w_4 w_5 w_6 4)))
 (let (($x9255 (not (bvsle (_ bv0 6) (bvadd (_ bv61 6) (sc_t 2))))))
 (let (($x4675 (exc_halt_t 2)))
 (let (($x1189 (not (= ((_ extract 6 6) (bvadd (_ bv1 7) (concat (_ bv0 1) (sc_t 2)))) (_ bv0 1)))))
 (let (($x8624 (= $x4112 (or $x1189 $x4675 $x9255))))
 (let (($x8527 (forall ((w (_ BitVec 256)) )(let ((?x5813 (storage_t x_0 w_4 w_5 w_6 2 w)))
 (let ((?x4458 (storage_t x_0 w_4 w_5 w_6 3 w)))
 (= ?x4458 ?x5813))))
 ))
 (let (($x308 (forall ((n (_ BitVec 6)) )(let ((?x5269 (sc_t 2)))
 (let ((?x146 (bvadd (_ bv61 6) ?x5269)))
 (let (($x11580 (bvsle ?x146 n)))
 (let ((?x10994 (stack_t x_0 w_4 w_5 w_6 2 n)))
 (let ((?x760 (stack_t x_0 w_4 w_5 w_6 3 n)))
 (or (= ?x760 ?x10994) $x11580)))))))
 ))
 (let ((?x11964 (sc_t 3)))
 (let (($x5314 (= ?x11964 (bvadd (_ bv1 6) (sc_t 2)))))
 (let ((?x4698 (used_gas_t x_0 w_4 w_5 w_6 3)))
 (let (($x10170 (= (stack_t x_0 w_4 w_5 w_6 3 (bvadd (_ bv63 6) (sc_t 2))) (stack_t x_0 w_4 w_5 w_6 2 (bvadd (_ bv63 6) (sc_t 2))))))
 (let (($x7173 (= (stack_t x_0 w_4 w_5 w_6 3 (bvadd (_ bv62 6) (sc_t 2))) (stack_t x_0 w_4 w_5 w_6 2 (bvadd (_ bv62 6) (sc_t 2))))))
 (let ((?x5269 (sc_t 2)))
 (let ((?x146 (bvadd (_ bv61 6) ?x5269)))
 (let ((?x1728 (stack_t x_0 w_4 w_5 w_6 2 ?x146)))
 (let (($x11439 (not (= ((_ extract 6 6) (bvadd (_ bv1 7) (concat (_ bv0 1) (sc_t 1)))) (_ bv0 1)))))
 (let (($x8377 (exc_halt_t 1)))
 (let (($x8904 (= $x4675 (or $x8377 $x11439))))
 (let (($x8444 (forall ((w (_ BitVec 256)) )(let ((?x7072 (storage_t x_0 w_4 w_5 w_6 1 w)))
 (let ((?x5813 (storage_t x_0 w_4 w_5 w_6 2 w)))
 (= ?x5813 ?x7072))))
 ))
 (let (($x11748 (forall ((n (_ BitVec 6)) )(let ((?x812 (stack_t x_0 w_4 w_5 w_6 1 n)))
 (let ((?x10994 (stack_t x_0 w_4 w_5 w_6 2 n)))
 (let ((?x7154 (sc_t 1)))
 (let (($x684 (bvsle ?x7154 n)))
 (or $x684 (= ?x10994 ?x812)))))))
 ))
 (let (($x4930 (= ?x5269 (bvadd (_ bv1 6) (sc_t 1)))))
 (let ((?x1379 (used_gas_t x_0 w_4 w_5 w_6 2)))
 (let (($x1609 (= $x8377 (or $x56 (not (= ((_ extract 6 6) (bvadd (_ bv1 7) (concat (_ bv0 1) ?x63))) (_ bv0 1)))))))
 (let (($x2555 (forall ((w (_ BitVec 256)) )(let ((?x10810 (storage_t x_0 w_4 w_5 w_6 0 w)))
 (let ((?x7072 (storage_t x_0 w_4 w_5 w_6 1 w)))
 (= ?x7072 ?x10810))))
 ))
 (let (($x6646 (forall ((n (_ BitVec 6)) )(let ((?x63 (sc_t 0)))
 (let (($x11230 (bvsle ?x63 n)))
 (let ((?x8752 (stack_t x_0 w_4 w_5 w_6 0 n)))
 (let ((?x812 (stack_t x_0 w_4 w_5 w_6 1 n)))
 (or (= ?x812 ?x8752) $x11230))))))
 ))
 (let ((?x7154 (sc_t 1)))
 (let (($x688 (= ?x7154 (bvadd (_ bv1 6) ?x63))))
 (let (($x4555 (= $x772 (or (exc_halt_s 5) (not (bvsle (_ bv0 6) (bvadd (_ bv62 6) (sc_s 5))))))))
 (let (($x9053 (forall ((w (_ BitVec 256)) )(let ((?x3578 (storage_s x_0 w_4 w_5 w_6 5 w)))
 (let ((?x7649 (storage_s x_0 w_4 w_5 w_6 6 w)))
 (= ?x7649 ?x3578))))
 ))
 (let (($x6504 (forall ((n (_ BitVec 6)) )(let ((?x803 (stack_s x_0 w_4 w_5 w_6 5 n)))
 (let ((?x3333 (stack_s x_0 w_4 w_5 w_6 6 n)))
 (or (bvsle (bvadd (_ bv62 6) (sc_s 5)) n) (= ?x3333 ?x803)))))
 ))
 (let ((?x4319 (sc_s 5)))
 (let (($x7923 (= ?x926 ?x4319)))
 (let (($x1260 (= (used_gas_s x_0 w_4 w_5 w_6 6) (+ 3 (used_gas_s x_0 w_4 w_5 w_6 5)))))
 (let (($x8318 (= (stack_s x_0 w_4 w_5 w_6 6 (bvadd (_ bv62 6) ?x926)) (stack_s x_0 w_4 w_5 w_6 5 (bvadd (_ bv63 6) ?x4319)))))
 (let (($x6822 (= (stack_s x_0 w_4 w_5 w_6 6 (bvadd (_ bv63 6) ?x926)) (stack_s x_0 w_4 w_5 w_6 5 (bvadd (_ bv62 6) ?x4319)))))
 (let (($x1075 (not (= ((_ extract 6 6) (bvadd (_ bv1 7) (concat (_ bv0 1) (sc_s 4)))) (_ bv0 1)))))
 (let (($x7172 (exc_halt_s 4)))
 (let (($x1862 (exc_halt_s 5)))
 (let (($x5693 (forall ((w (_ BitVec 256)) )(let ((?x1603 (storage_s x_0 w_4 w_5 w_6 4 w)))
 (let ((?x3578 (storage_s x_0 w_4 w_5 w_6 5 w)))
 (= ?x3578 ?x1603))))
 ))
 (let (($x1497 (forall ((n (_ BitVec 6)) )(let ((?x1259 (stack_s x_0 w_4 w_5 w_6 4 n)))
 (let ((?x803 (stack_s x_0 w_4 w_5 w_6 5 n)))
 (or (= ?x803 ?x1259) (bvsle (sc_s 4) n)))))
 ))
 (let (($x11849 (= ?x4319 (bvadd (_ bv1 6) (sc_s 4)))))
 (let ((?x3728 (used_gas_s x_0 w_4 w_5 w_6 5)))
 (let (($x6338 (not (= ((_ extract 6 6) (bvadd (_ bv1 7) (concat (_ bv0 1) (sc_s 3)))) (_ bv0 1)))))
 (let (($x292 (exc_halt_s 3)))
 (let (($x9832 (= $x7172 (or $x292 $x6338))))
 (let (($x11608 (forall ((w (_ BitVec 256)) )(let ((?x10651 (storage_s x_0 w_4 w_5 w_6 3 w)))
 (let ((?x1603 (storage_s x_0 w_4 w_5 w_6 4 w)))
 (= ?x1603 ?x10651))))
 ))
 (let (($x11267 (forall ((n (_ BitVec 6)) )(let ((?x6818 (stack_s x_0 w_4 w_5 w_6 3 n)))
 (let ((?x1259 (stack_s x_0 w_4 w_5 w_6 4 n)))
 (let ((?x275 (sc_s 3)))
 (let (($x5381 (bvsle ?x275 n)))
 (or $x5381 (= ?x1259 ?x6818)))))))
 ))
 (let ((?x4305 (sc_s 4)))
 (let (($x11214 (= ?x4305 (bvadd (_ bv1 6) (sc_s 3)))))
 (let ((?x9957 (used_gas_s x_0 w_4 w_5 w_6 4)))
 (let (($x2376 (not (= ((_ extract 6 6) (bvadd (_ bv1 7) (concat (_ bv0 1) (sc_s 2)))) (_ bv0 1)))))
 (let (($x247 (exc_halt_s 2)))
 (let (($x5737 (forall ((w (_ BitVec 256)) )(let ((?x9297 (storage_s x_0 w_4 w_5 w_6 2 w)))
 (let ((?x10651 (storage_s x_0 w_4 w_5 w_6 3 w)))
 (= ?x10651 ?x9297))))
 ))
 (let (($x1743 (forall ((n (_ BitVec 6)) )(let ((?x3792 (stack_s x_0 w_4 w_5 w_6 2 n)))
 (let ((?x6818 (stack_s x_0 w_4 w_5 w_6 3 n)))
 (or (bvsle (bvadd (_ bv61 6) (sc_s 2)) n) (= ?x6818 ?x3792)))))
 ))
 (let ((?x275 (sc_s 3)))
 (let (($x7581 (= ?x275 (bvadd (_ bv1 6) (sc_s 2)))))
 (let ((?x5090 (used_gas_s x_0 w_4 w_5 w_6 3)))
 (let (($x9027 (= (stack_s x_0 w_4 w_5 w_6 3 (bvadd (_ bv63 6) (sc_s 2))) (stack_s x_0 w_4 w_5 w_6 2 (bvadd (_ bv63 6) (sc_s 2))))))
 (let (($x6107 (= (stack_s x_0 w_4 w_5 w_6 3 (bvadd (_ bv62 6) (sc_s 2))) (stack_s x_0 w_4 w_5 w_6 2 (bvadd (_ bv62 6) (sc_s 2))))))
 (let ((?x218 (sc_s 2)))
 (let ((?x11418 (bvadd (_ bv61 6) ?x218)))
 (let ((?x11153 (stack_s x_0 w_4 w_5 w_6 2 ?x11418)))
 (let (($x1394 (not (= ((_ extract 6 6) (bvadd (_ bv1 7) (concat (_ bv0 1) (sc_s 1)))) (_ bv0 1)))))
 (let (($x189 (exc_halt_s 1)))
 (let (($x3502 (= $x247 (or $x189 $x1394))))
 (let (($x9355 (forall ((w (_ BitVec 256)) )(let ((?x4804 (storage_s x_0 w_4 w_5 w_6 1 w)))
 (let ((?x9297 (storage_s x_0 w_4 w_5 w_6 2 w)))
 (= ?x9297 ?x4804))))
 ))
 (let (($x5181 (forall ((n (_ BitVec 6)) )(let ((?x9819 (stack_s x_0 w_4 w_5 w_6 1 n)))
 (let ((?x3792 (stack_s x_0 w_4 w_5 w_6 2 n)))
 (let ((?x154 (sc_s 1)))
 (let (($x6197 (bvsle ?x154 n)))
 (or $x6197 (= ?x3792 ?x9819)))))))
 ))
 (let (($x4361 (= ?x218 (bvadd (_ bv1 6) (sc_s 1)))))
 (let ((?x1943 (used_gas_s x_0 w_4 w_5 w_6 2)))
 (let (($x7127 (= $x189 (or $x57 (not (= ((_ extract 6 6) (bvadd (_ bv1 7) (concat (_ bv0 1) ?x72))) (_ bv0 1)))))))
 (let (($x11378 (forall ((w (_ BitVec 256)) )(let ((?x3848 (storage_s x_0 w_4 w_5 w_6 0 w)))
 (let ((?x4804 (storage_s x_0 w_4 w_5 w_6 1 w)))
 (= ?x4804 ?x3848))))
 ))
 (let (($x6433 (forall ((n (_ BitVec 6)) )(let ((?x6669 (stack_s x_0 w_4 w_5 w_6 0 n)))
 (let ((?x9819 (stack_s x_0 w_4 w_5 w_6 1 n)))
 (let ((?x72 (sc_s 0)))
 (let (($x5044 (bvsle ?x72 n)))
 (or $x5044 (= ?x9819 ?x6669)))))))
 ))
 (let ((?x154 (sc_s 1)))
 (let (($x2340 (= ?x154 (bvadd (_ bv1 6) ?x72))))
 (let (($x7235 (forall ((w (_ BitVec 256)) )(let ((?x3848 (storage_s x_0 w_4 w_5 w_6 0 w)))
 (= ?x3848 (_ bv0 256))))
 ))
 (let (($x10704 (= ?x7966 0)))
 (let (($x5230 (not $x57)))
 (let (($x929 (= (stack_s x_0 w_4 w_5 w_6 0 (_ bv0 6)) x_0)))
 (let (($x7315 (= ?x72 (_ bv1 6))))
 (and $x7315 $x929 $x5230 $x10704 $x7235 (= (stack_s x_0 w_4 w_5 w_6 1 ?x72) w_4) (= (used_gas_s x_0 w_4 w_5 w_6 1) (+ 3 ?x7966)) $x2340 $x6433 $x11378 $x7127 (= (stack_s x_0 w_4 w_5 w_6 2 ?x154) w_5) (= ?x1943 (+ 3 (used_gas_s x_0 w_4 w_5 w_6 1))) $x4361 $x5181 $x9355 $x3502 (= (stack_s x_0 w_4 w_5 w_6 3 (bvadd (_ bv63 6) ?x275)) ?x11153) (= (stack_s x_0 w_4 w_5 w_6 3 ?x11418) ?x11153) $x6107 $x9027 (= ?x5090 (+ 3 ?x1943)) $x7581 $x1743 $x5737 (= $x292 (or $x247 $x2376 (not (bvsle (_ bv0 6) ?x11418)))) (= (stack_s x_0 w_4 w_5 w_6 4 ?x275) w_4) (= ?x9957 (+ 3 ?x5090)) $x11214 $x11267 $x11608 $x9832 (= (stack_s x_0 w_4 w_5 w_6 5 ?x4305) w_6) (= ?x3728 (+ 3 ?x9957)) $x11849 $x1497 $x5693 (= $x1862 (or $x7172 $x1075)) $x6822 $x8318 $x1260 $x7923 $x6504 $x9053 $x4555 (= (stack_t x_0 w_4 w_5 w_6 1 ?x63) w_4) (= (used_gas_t x_0 w_4 w_5 w_6 1) (+ 3 ?x1257)) $x688 $x6646 $x2555 $x1609 (= (stack_t x_0 w_4 w_5 w_6 2 ?x7154) w_5) (= ?x1379 (+ 3 (used_gas_t x_0 w_4 w_5 w_6 1))) $x4930 $x11748 $x8444 $x8904 (= (stack_t x_0 w_4 w_5 w_6 3 (bvadd (_ bv63 6) ?x11964)) ?x1728) (= (stack_t x_0 w_4 w_5 w_6 3 ?x146) ?x1728) $x7173 $x10170 (= ?x4698 (+ 3 ?x1379)) $x5314 $x308 $x8527 $x8624 (= (stack_t x_0 w_4 w_5 w_6 4 ?x11964) w_6) (= ?x8039 (+ 3 ?x4698)) $x9174 $x2673 $x8973 (= $x7854 (or $x4112 $x7621)) (= (stack_t x_0 w_4 w_5 w_6 5 (bvadd (_ bv63 6) ?x8961)) ?x4718) (= (stack_t x_0 w_4 w_5 w_6 5 ?x9419) ?x4718) $x10139 $x1439 $x3165 $x11217 $x7222 $x4626 $x5660 (= $x1885 (or $x6854 $x7854 (not (bvsle (_ bv0 6) ?x9419)))) $x73 $x6802 $x58 $x6809 $x9717 (not (and $x5889 $x7757 $x11108 $x10849)))))))))))))))))))))))))))))))))))))))))))))))))))))))))))))))))))))))))))))))))))))))))))))))))))))))))))))))))))))))
 )
(check-sat)
(get-proof)
